/* Cplex Data generated on 2017-12-15 */

k = 70;

b = 35;

AtomicConstraints = {
	 <1, 36>,
	 <1, 14>,
	 <1, 15>,
	 <1, 41>,
	 <1, 40>,
	 <1, 39>,
	 <1, 38>,
	 <1, 16>,
	 <1, 46>,
	 <1, 47>,
	 <1, 48>,
	 <1, 17>,
	 <1, 18>,
	 <1, 19>,
	 <1, 20>,
	 <1, 51>,
	 <1, 52>,
	 <1, 22>,
	 <1, 23>,
	 <1, 24>,
	 <1, 25>,
	 <1, 56>,
	 <1, 26>,
	 <1, 27>,
	 <1, 28>,
	 <1, 63>,
	 <1, 29>,
	 <1, 30>,
	 <1, 31>,
	 <1, 32>,
	 <1, 33>,
	 <1, 61>,
	 <1, 34>,
	 <1, 53>,
	 <1, 69>,
	 <1, 68>,
	 <1, 49>,
	 <1, 62>,
	 <1, 59>,
	 <1, 44>,
	 <1, 67>,
	 <1, 54>,
	 <1, 45>,
	 <1, 55>,
	 <1, 37>,
	 <1, 35>,
	 <1, 42>,
	 <1, 64>,
	 <1, 50>,
	 <1, 58>,
	 <1, 57>,
	 <1, 65>,
	 <1, 66>,
	 <1, 70>,
	 <1, 60>,
	 <1, 43>,
	 <3, 1>,
	 <3, 2>,
	 <3, 5>,
	 <3, 36>,
	 <3, 14>,
	 <3, 15>,
	 <3, 41>,
	 <3, 40>,
	 <3, 39>,
	 <3, 38>,
	 <3, 16>,
	 <3, 46>,
	 <3, 47>,
	 <3, 48>,
	 <3, 17>,
	 <3, 18>,
	 <3, 19>,
	 <3, 20>,
	 <3, 21>,
	 <3, 51>,
	 <3, 52>,
	 <3, 22>,
	 <3, 23>,
	 <3, 24>,
	 <3, 25>,
	 <3, 56>,
	 <3, 26>,
	 <3, 27>,
	 <3, 28>,
	 <3, 63>,
	 <3, 29>,
	 <3, 30>,
	 <3, 31>,
	 <3, 32>,
	 <3, 33>,
	 <3, 61>,
	 <3, 34>,
	 <3, 53>,
	 <3, 69>,
	 <3, 68>,
	 <3, 49>,
	 <3, 62>,
	 <3, 59>,
	 <3, 44>,
	 <3, 67>,
	 <3, 54>,
	 <3, 45>,
	 <3, 55>,
	 <3, 37>,
	 <3, 35>,
	 <3, 42>,
	 <3, 64>,
	 <3, 50>,
	 <3, 58>,
	 <3, 57>,
	 <3, 65>,
	 <3, 66>,
	 <3, 70>,
	 <3, 60>,
	 <3, 43>,
	 <4, 1>,
	 <4, 2>,
	 <4, 5>,
	 <4, 10>,
	 <4, 36>,
	 <4, 14>,
	 <4, 15>,
	 <4, 41>,
	 <4, 40>,
	 <4, 39>,
	 <4, 38>,
	 <4, 16>,
	 <4, 46>,
	 <4, 47>,
	 <4, 48>,
	 <4, 17>,
	 <4, 18>,
	 <4, 19>,
	 <4, 20>,
	 <4, 21>,
	 <4, 51>,
	 <4, 52>,
	 <4, 23>,
	 <4, 24>,
	 <4, 25>,
	 <4, 56>,
	 <4, 26>,
	 <4, 27>,
	 <4, 63>,
	 <4, 29>,
	 <4, 30>,
	 <4, 31>,
	 <4, 32>,
	 <4, 33>,
	 <4, 61>,
	 <4, 34>,
	 <4, 53>,
	 <4, 69>,
	 <4, 68>,
	 <4, 49>,
	 <4, 62>,
	 <4, 59>,
	 <4, 44>,
	 <4, 67>,
	 <4, 54>,
	 <4, 45>,
	 <4, 55>,
	 <4, 37>,
	 <4, 35>,
	 <4, 42>,
	 <4, 64>,
	 <4, 50>,
	 <4, 58>,
	 <4, 57>,
	 <4, 65>,
	 <4, 66>,
	 <4, 70>,
	 <4, 60>,
	 <4, 43>,
	 <2, 36>,
	 <2, 14>,
	 <2, 15>,
	 <2, 41>,
	 <2, 40>,
	 <2, 39>,
	 <2, 38>,
	 <2, 16>,
	 <2, 46>,
	 <2, 47>,
	 <2, 48>,
	 <2, 17>,
	 <2, 18>,
	 <2, 19>,
	 <2, 20>,
	 <2, 21>,
	 <2, 51>,
	 <2, 52>,
	 <2, 23>,
	 <2, 24>,
	 <2, 25>,
	 <2, 56>,
	 <2, 26>,
	 <2, 27>,
	 <2, 63>,
	 <2, 29>,
	 <2, 30>,
	 <2, 31>,
	 <2, 32>,
	 <2, 33>,
	 <2, 61>,
	 <2, 34>,
	 <2, 53>,
	 <2, 69>,
	 <2, 68>,
	 <2, 49>,
	 <2, 62>,
	 <2, 59>,
	 <2, 44>,
	 <2, 67>,
	 <2, 54>,
	 <2, 45>,
	 <2, 55>,
	 <2, 37>,
	 <2, 35>,
	 <2, 42>,
	 <2, 64>,
	 <2, 50>,
	 <2, 58>,
	 <2, 57>,
	 <2, 65>,
	 <2, 66>,
	 <2, 70>,
	 <2, 60>,
	 <2, 43>,
	 <6, 2>,
	 <6, 5>,
	 <6, 10>,
	 <6, 11>,
	 <6, 14>,
	 <6, 41>,
	 <6, 40>,
	 <6, 39>,
	 <6, 38>,
	 <6, 16>,
	 <6, 46>,
	 <6, 47>,
	 <6, 48>,
	 <6, 17>,
	 <6, 18>,
	 <6, 19>,
	 <6, 20>,
	 <6, 21>,
	 <6, 51>,
	 <6, 52>,
	 <6, 23>,
	 <6, 24>,
	 <6, 25>,
	 <6, 26>,
	 <6, 27>,
	 <6, 63>,
	 <6, 29>,
	 <6, 30>,
	 <6, 31>,
	 <6, 32>,
	 <6, 33>,
	 <6, 61>,
	 <6, 34>,
	 <6, 53>,
	 <6, 69>,
	 <6, 68>,
	 <6, 49>,
	 <6, 62>,
	 <6, 59>,
	 <6, 44>,
	 <6, 67>,
	 <6, 54>,
	 <6, 45>,
	 <6, 55>,
	 <6, 37>,
	 <6, 35>,
	 <6, 42>,
	 <6, 64>,
	 <6, 50>,
	 <6, 58>,
	 <6, 57>,
	 <6, 65>,
	 <6, 66>,
	 <6, 70>,
	 <6, 60>,
	 <6, 43>,
	 <7, 5>,
	 <7, 10>,
	 <7, 11>,
	 <7, 12>,
	 <7, 40>,
	 <7, 39>,
	 <7, 38>,
	 <7, 16>,
	 <7, 46>,
	 <7, 47>,
	 <7, 48>,
	 <7, 17>,
	 <7, 18>,
	 <7, 19>,
	 <7, 20>,
	 <7, 21>,
	 <7, 51>,
	 <7, 52>,
	 <7, 24>,
	 <7, 25>,
	 <7, 26>,
	 <7, 27>,
	 <7, 63>,
	 <7, 29>,
	 <7, 30>,
	 <7, 31>,
	 <7, 32>,
	 <7, 33>,
	 <7, 61>,
	 <7, 34>,
	 <7, 53>,
	 <7, 69>,
	 <7, 68>,
	 <7, 49>,
	 <7, 62>,
	 <7, 44>,
	 <7, 67>,
	 <7, 54>,
	 <7, 55>,
	 <7, 37>,
	 <7, 35>,
	 <7, 42>,
	 <7, 64>,
	 <7, 50>,
	 <7, 58>,
	 <7, 57>,
	 <7, 65>,
	 <7, 66>,
	 <7, 70>,
	 <7, 60>,
	 <7, 43>,
	 <8, 10>,
	 <8, 11>,
	 <8, 12>,
	 <8, 13>,
	 <8, 38>,
	 <8, 16>,
	 <8, 46>,
	 <8, 47>,
	 <8, 48>,
	 <8, 17>,
	 <8, 18>,
	 <8, 19>,
	 <8, 20>,
	 <8, 21>,
	 <8, 51>,
	 <8, 52>,
	 <8, 24>,
	 <8, 25>,
	 <8, 26>,
	 <8, 27>,
	 <8, 63>,
	 <8, 29>,
	 <8, 30>,
	 <8, 31>,
	 <8, 32>,
	 <8, 33>,
	 <8, 61>,
	 <8, 34>,
	 <8, 53>,
	 <8, 69>,
	 <8, 68>,
	 <8, 49>,
	 <8, 62>,
	 <8, 59>,
	 <8, 44>,
	 <8, 67>,
	 <8, 37>,
	 <8, 35>,
	 <8, 42>,
	 <8, 64>,
	 <8, 50>,
	 <8, 58>,
	 <8, 57>,
	 <8, 65>,
	 <8, 66>,
	 <8, 70>,
	 <8, 60>,
	 <8, 43>,
	 <9, 11>,
	 <9, 12>,
	 <9, 13>,
	 <9, 46>,
	 <9, 47>,
	 <9, 48>,
	 <9, 17>,
	 <9, 18>,
	 <9, 19>,
	 <9, 20>,
	 <9, 21>,
	 <9, 51>,
	 <9, 52>,
	 <9, 24>,
	 <9, 25>,
	 <9, 26>,
	 <9, 27>,
	 <9, 63>,
	 <9, 29>,
	 <9, 30>,
	 <9, 31>,
	 <9, 32>,
	 <9, 33>,
	 <9, 61>,
	 <9, 34>,
	 <9, 53>,
	 <9, 69>,
	 <9, 68>,
	 <9, 49>,
	 <9, 62>,
	 <9, 44>,
	 <9, 67>,
	 <9, 37>,
	 <9, 35>,
	 <9, 42>,
	 <9, 64>,
	 <9, 50>,
	 <9, 58>,
	 <9, 57>,
	 <9, 65>,
	 <9, 66>,
	 <9, 70>,
	 <9, 60>,
	 <9, 43>,
	 <5, 14>,
	 <5, 41>,
	 <5, 40>,
	 <5, 39>,
	 <5, 38>,
	 <5, 16>,
	 <5, 46>,
	 <5, 47>,
	 <5, 48>,
	 <5, 17>,
	 <5, 18>,
	 <5, 19>,
	 <5, 20>,
	 <5, 21>,
	 <5, 51>,
	 <5, 52>,
	 <5, 23>,
	 <5, 24>,
	 <5, 25>,
	 <5, 26>,
	 <5, 27>,
	 <5, 63>,
	 <5, 29>,
	 <5, 30>,
	 <5, 31>,
	 <5, 32>,
	 <5, 33>,
	 <5, 61>,
	 <5, 34>,
	 <5, 53>,
	 <5, 69>,
	 <5, 68>,
	 <5, 49>,
	 <5, 62>,
	 <5, 59>,
	 <5, 44>,
	 <5, 67>,
	 <5, 54>,
	 <5, 45>,
	 <5, 55>,
	 <5, 37>,
	 <5, 35>,
	 <5, 42>,
	 <5, 64>,
	 <5, 50>,
	 <5, 58>,
	 <5, 57>,
	 <5, 65>,
	 <5, 66>,
	 <5, 70>,
	 <5, 60>,
	 <5, 43>,
	 <10, 40>,
	 <10, 39>,
	 <10, 38>,
	 <10, 16>,
	 <10, 46>,
	 <10, 47>,
	 <10, 48>,
	 <10, 17>,
	 <10, 18>,
	 <10, 19>,
	 <10, 20>,
	 <10, 21>,
	 <10, 51>,
	 <10, 52>,
	 <10, 24>,
	 <10, 25>,
	 <10, 26>,
	 <10, 27>,
	 <10, 63>,
	 <10, 29>,
	 <10, 30>,
	 <10, 31>,
	 <10, 32>,
	 <10, 33>,
	 <10, 61>,
	 <10, 34>,
	 <10, 53>,
	 <10, 69>,
	 <10, 68>,
	 <10, 49>,
	 <10, 62>,
	 <10, 44>,
	 <10, 67>,
	 <10, 54>,
	 <10, 55>,
	 <10, 37>,
	 <10, 35>,
	 <10, 42>,
	 <10, 64>,
	 <10, 50>,
	 <10, 58>,
	 <10, 57>,
	 <10, 65>,
	 <10, 66>,
	 <10, 70>,
	 <10, 60>,
	 <10, 43>,
	 <11, 38>,
	 <11, 16>,
	 <11, 46>,
	 <11, 47>,
	 <11, 48>,
	 <11, 17>,
	 <11, 18>,
	 <11, 19>,
	 <11, 20>,
	 <11, 21>,
	 <11, 51>,
	 <11, 52>,
	 <11, 24>,
	 <11, 25>,
	 <11, 26>,
	 <11, 27>,
	 <11, 63>,
	 <11, 29>,
	 <11, 30>,
	 <11, 31>,
	 <11, 32>,
	 <11, 33>,
	 <11, 61>,
	 <11, 34>,
	 <11, 53>,
	 <11, 69>,
	 <11, 68>,
	 <11, 49>,
	 <11, 62>,
	 <11, 59>,
	 <11, 44>,
	 <11, 67>,
	 <11, 37>,
	 <11, 35>,
	 <11, 42>,
	 <11, 64>,
	 <11, 50>,
	 <11, 58>,
	 <11, 57>,
	 <11, 65>,
	 <11, 66>,
	 <11, 70>,
	 <11, 60>,
	 <11, 43>,
	 <12, 46>,
	 <12, 47>,
	 <12, 48>,
	 <12, 17>,
	 <12, 18>,
	 <12, 19>,
	 <12, 20>,
	 <12, 21>,
	 <12, 51>,
	 <12, 52>,
	 <12, 24>,
	 <12, 25>,
	 <12, 26>,
	 <12, 27>,
	 <12, 63>,
	 <12, 29>,
	 <12, 30>,
	 <12, 31>,
	 <12, 32>,
	 <12, 33>,
	 <12, 61>,
	 <12, 34>,
	 <12, 53>,
	 <12, 69>,
	 <12, 68>,
	 <12, 49>,
	 <12, 62>,
	 <12, 44>,
	 <12, 67>,
	 <12, 37>,
	 <12, 35>,
	 <12, 42>,
	 <12, 64>,
	 <12, 50>,
	 <12, 58>,
	 <12, 57>,
	 <12, 65>,
	 <12, 66>,
	 <12, 70>,
	 <12, 60>,
	 <12, 43>,
	 <13, 47>,
	 <13, 48>,
	 <13, 17>,
	 <13, 18>,
	 <13, 19>,
	 <13, 20>,
	 <13, 21>,
	 <13, 51>,
	 <13, 52>,
	 <13, 25>,
	 <13, 27>,
	 <13, 63>,
	 <13, 29>,
	 <13, 30>,
	 <13, 31>,
	 <13, 32>,
	 <13, 33>,
	 <13, 61>,
	 <13, 34>,
	 <13, 53>,
	 <13, 69>,
	 <13, 68>,
	 <13, 49>,
	 <13, 62>,
	 <13, 44>,
	 <13, 67>,
	 <13, 37>,
	 <13, 35>,
	 <13, 42>,
	 <13, 64>,
	 <13, 50>,
	 <13, 58>,
	 <13, 57>,
	 <13, 65>,
	 <13, 66>,
	 <13, 70>,
	 <13, 60>,
	 <13, 43>,
	 <36, 59>,
	 <36, 44>,
	 <36, 67>,
	 <36, 54>,
	 <36, 45>,
	 <36, 55>,
	 <36, 37>,
	 <36, 35>,
	 <36, 42>,
	 <36, 64>,
	 <36, 50>,
	 <36, 58>,
	 <36, 57>,
	 <36, 65>,
	 <15, 36>,
	 <15, 14>,
	 <15, 40>,
	 <15, 59>,
	 <15, 44>,
	 <15, 67>,
	 <15, 54>,
	 <15, 45>,
	 <15, 55>,
	 <15, 37>,
	 <15, 35>,
	 <15, 42>,
	 <15, 64>,
	 <15, 50>,
	 <15, 58>,
	 <15, 57>,
	 <15, 65>,
	 <15, 43>,
	 <41, 36>,
	 <41, 14>,
	 <41, 40>,
	 <41, 16>,
	 <41, 59>,
	 <41, 44>,
	 <41, 67>,
	 <41, 54>,
	 <41, 45>,
	 <41, 55>,
	 <41, 37>,
	 <41, 35>,
	 <41, 42>,
	 <41, 64>,
	 <41, 50>,
	 <41, 58>,
	 <41, 57>,
	 <41, 65>,
	 <41, 43>,
	 <14, 59>,
	 <14, 44>,
	 <14, 67>,
	 <14, 54>,
	 <14, 45>,
	 <14, 55>,
	 <14, 37>,
	 <14, 35>,
	 <14, 42>,
	 <14, 64>,
	 <14, 50>,
	 <14, 58>,
	 <14, 57>,
	 <14, 65>,
	 <39, 14>,
	 <39, 40>,
	 <39, 16>,
	 <39, 46>,
	 <39, 59>,
	 <39, 44>,
	 <39, 67>,
	 <39, 54>,
	 <39, 45>,
	 <39, 55>,
	 <39, 37>,
	 <39, 35>,
	 <39, 42>,
	 <39, 64>,
	 <39, 50>,
	 <39, 58>,
	 <39, 57>,
	 <39, 65>,
	 <39, 66>,
	 <39, 43>,
	 <38, 40>,
	 <38, 16>,
	 <38, 46>,
	 <38, 47>,
	 <38, 44>,
	 <38, 67>,
	 <38, 54>,
	 <38, 55>,
	 <38, 37>,
	 <38, 35>,
	 <38, 42>,
	 <38, 64>,
	 <38, 50>,
	 <38, 58>,
	 <38, 57>,
	 <38, 65>,
	 <38, 66>,
	 <38, 43>,
	 <40, 59>,
	 <40, 44>,
	 <40, 67>,
	 <40, 54>,
	 <40, 45>,
	 <40, 55>,
	 <40, 37>,
	 <40, 35>,
	 <40, 42>,
	 <40, 64>,
	 <40, 50>,
	 <40, 58>,
	 <40, 57>,
	 <40, 65>,
	 <40, 43>,
	 <16, 44>,
	 <16, 67>,
	 <16, 54>,
	 <16, 55>,
	 <16, 37>,
	 <16, 35>,
	 <16, 42>,
	 <16, 64>,
	 <16, 50>,
	 <16, 58>,
	 <16, 57>,
	 <16, 65>,
	 <16, 43>,
	 <46, 44>,
	 <46, 67>,
	 <46, 37>,
	 <46, 35>,
	 <46, 42>,
	 <46, 64>,
	 <46, 50>,
	 <46, 58>,
	 <46, 57>,
	 <46, 65>,
	 <46, 66>,
	 <46, 43>,
	 <47, 44>,
	 <47, 67>,
	 <47, 37>,
	 <47, 35>,
	 <47, 42>,
	 <47, 64>,
	 <47, 50>,
	 <47, 58>,
	 <47, 57>,
	 <47, 65>,
	 <47, 66>,
	 <47, 43>,
	 <48, 44>,
	 <48, 67>,
	 <48, 37>,
	 <48, 35>,
	 <48, 42>,
	 <48, 64>,
	 <48, 50>,
	 <48, 58>,
	 <48, 57>,
	 <48, 65>,
	 <48, 66>,
	 <48, 43>,
	 <17, 44>,
	 <17, 67>,
	 <17, 37>,
	 <17, 35>,
	 <17, 42>,
	 <17, 64>,
	 <17, 50>,
	 <17, 58>,
	 <17, 57>,
	 <17, 65>,
	 <17, 66>,
	 <17, 43>,
	 <18, 51>,
	 <18, 52>,
	 <18, 63>,
	 <18, 29>,
	 <18, 30>,
	 <18, 31>,
	 <18, 32>,
	 <18, 33>,
	 <18, 61>,
	 <18, 34>,
	 <18, 35>,
	 <18, 42>,
	 <18, 64>,
	 <18, 58>,
	 <18, 57>,
	 <18, 65>,
	 <18, 66>,
	 <18, 70>,
	 <18, 60>,
	 <18, 43>,
	 <19, 51>,
	 <19, 52>,
	 <19, 63>,
	 <19, 29>,
	 <19, 30>,
	 <19, 31>,
	 <19, 32>,
	 <19, 33>,
	 <19, 61>,
	 <19, 34>,
	 <19, 35>,
	 <19, 64>,
	 <19, 57>,
	 <19, 65>,
	 <19, 66>,
	 <19, 70>,
	 <19, 60>,
	 <19, 43>,
	 <20, 52>,
	 <20, 63>,
	 <20, 29>,
	 <20, 30>,
	 <20, 31>,
	 <20, 32>,
	 <20, 33>,
	 <20, 61>,
	 <20, 34>,
	 <20, 57>,
	 <20, 65>,
	 <20, 66>,
	 <20, 70>,
	 <20, 60>,
	 <20, 43>,
	 <21, 63>,
	 <21, 29>,
	 <21, 30>,
	 <21, 31>,
	 <21, 32>,
	 <21, 33>,
	 <21, 61>,
	 <21, 34>,
	 <21, 57>,
	 <21, 65>,
	 <21, 66>,
	 <21, 70>,
	 <21, 60>,
	 <21, 43>,
	 <51, 63>,
	 <51, 29>,
	 <51, 30>,
	 <51, 31>,
	 <51, 32>,
	 <51, 33>,
	 <51, 61>,
	 <51, 34>,
	 <51, 35>,
	 <51, 42>,
	 <51, 64>,
	 <51, 58>,
	 <51, 57>,
	 <51, 65>,
	 <51, 66>,
	 <51, 70>,
	 <51, 60>,
	 <51, 43>,
	 <52, 63>,
	 <52, 29>,
	 <52, 30>,
	 <52, 31>,
	 <52, 32>,
	 <52, 33>,
	 <52, 61>,
	 <52, 34>,
	 <52, 35>,
	 <52, 64>,
	 <52, 57>,
	 <52, 65>,
	 <52, 66>,
	 <52, 70>,
	 <52, 60>,
	 <52, 43>,
	 <23, 36>,
	 <23, 14>,
	 <23, 15>,
	 <23, 41>,
	 <23, 40>,
	 <23, 39>,
	 <23, 38>,
	 <23, 16>,
	 <23, 46>,
	 <23, 47>,
	 <23, 48>,
	 <23, 17>,
	 <23, 53>,
	 <23, 69>,
	 <23, 68>,
	 <23, 49>,
	 <23, 62>,
	 <23, 59>,
	 <23, 44>,
	 <23, 67>,
	 <23, 54>,
	 <23, 45>,
	 <23, 55>,
	 <23, 37>,
	 <23, 35>,
	 <23, 42>,
	 <23, 64>,
	 <23, 50>,
	 <23, 58>,
	 <23, 57>,
	 <23, 65>,
	 <23, 66>,
	 <23, 70>,
	 <23, 60>,
	 <23, 43>,
	 <24, 38>,
	 <24, 16>,
	 <24, 46>,
	 <24, 47>,
	 <24, 48>,
	 <24, 17>,
	 <24, 53>,
	 <24, 69>,
	 <24, 68>,
	 <24, 49>,
	 <24, 62>,
	 <24, 44>,
	 <24, 67>,
	 <24, 37>,
	 <24, 35>,
	 <24, 42>,
	 <24, 64>,
	 <24, 50>,
	 <24, 58>,
	 <24, 57>,
	 <24, 65>,
	 <24, 66>,
	 <24, 70>,
	 <24, 60>,
	 <24, 43>,
	 <25, 46>,
	 <25, 47>,
	 <25, 48>,
	 <25, 17>,
	 <25, 53>,
	 <25, 69>,
	 <25, 68>,
	 <25, 49>,
	 <25, 62>,
	 <25, 44>,
	 <25, 67>,
	 <25, 37>,
	 <25, 35>,
	 <25, 42>,
	 <25, 64>,
	 <25, 50>,
	 <25, 58>,
	 <25, 57>,
	 <25, 65>,
	 <25, 66>,
	 <25, 70>,
	 <25, 60>,
	 <25, 43>,
	 <22, 36>,
	 <22, 14>,
	 <22, 15>,
	 <22, 41>,
	 <22, 40>,
	 <22, 39>,
	 <22, 38>,
	 <22, 16>,
	 <22, 46>,
	 <22, 47>,
	 <22, 48>,
	 <22, 17>,
	 <22, 23>,
	 <22, 28>,
	 <22, 53>,
	 <22, 69>,
	 <22, 68>,
	 <22, 49>,
	 <22, 62>,
	 <22, 59>,
	 <22, 44>,
	 <22, 67>,
	 <22, 54>,
	 <22, 45>,
	 <22, 55>,
	 <22, 37>,
	 <22, 35>,
	 <22, 42>,
	 <22, 64>,
	 <22, 50>,
	 <22, 58>,
	 <22, 57>,
	 <22, 65>,
	 <22, 66>,
	 <22, 70>,
	 <22, 60>,
	 <22, 43>,
	 <56, 36>,
	 <56, 14>,
	 <56, 15>,
	 <56, 41>,
	 <56, 40>,
	 <56, 39>,
	 <56, 38>,
	 <56, 16>,
	 <56, 46>,
	 <56, 47>,
	 <56, 48>,
	 <56, 17>,
	 <56, 23>,
	 <56, 28>,
	 <56, 53>,
	 <56, 69>,
	 <56, 68>,
	 <56, 49>,
	 <56, 62>,
	 <56, 59>,
	 <56, 44>,
	 <56, 67>,
	 <56, 54>,
	 <56, 45>,
	 <56, 55>,
	 <56, 37>,
	 <56, 35>,
	 <56, 42>,
	 <56, 64>,
	 <56, 50>,
	 <56, 58>,
	 <56, 57>,
	 <56, 65>,
	 <56, 66>,
	 <56, 70>,
	 <56, 60>,
	 <56, 43>,
	 <26, 38>,
	 <26, 16>,
	 <26, 46>,
	 <26, 47>,
	 <26, 48>,
	 <26, 17>,
	 <26, 24>,
	 <26, 25>,
	 <26, 53>,
	 <26, 69>,
	 <26, 68>,
	 <26, 49>,
	 <26, 62>,
	 <26, 59>,
	 <26, 44>,
	 <26, 67>,
	 <26, 37>,
	 <26, 35>,
	 <26, 42>,
	 <26, 64>,
	 <26, 50>,
	 <26, 58>,
	 <26, 57>,
	 <26, 65>,
	 <26, 66>,
	 <26, 70>,
	 <26, 60>,
	 <26, 43>,
	 <27, 46>,
	 <27, 47>,
	 <27, 48>,
	 <27, 17>,
	 <27, 24>,
	 <27, 25>,
	 <27, 53>,
	 <27, 69>,
	 <27, 68>,
	 <27, 49>,
	 <27, 62>,
	 <27, 44>,
	 <27, 67>,
	 <27, 37>,
	 <27, 35>,
	 <27, 42>,
	 <27, 64>,
	 <27, 50>,
	 <27, 58>,
	 <27, 57>,
	 <27, 65>,
	 <27, 66>,
	 <27, 70>,
	 <27, 60>,
	 <27, 43>,
	 <28, 36>,
	 <28, 14>,
	 <28, 15>,
	 <28, 41>,
	 <28, 40>,
	 <28, 39>,
	 <28, 38>,
	 <28, 16>,
	 <28, 46>,
	 <28, 47>,
	 <28, 48>,
	 <28, 17>,
	 <28, 53>,
	 <28, 69>,
	 <28, 68>,
	 <28, 49>,
	 <28, 62>,
	 <28, 59>,
	 <28, 44>,
	 <28, 67>,
	 <28, 54>,
	 <28, 45>,
	 <28, 55>,
	 <28, 37>,
	 <28, 35>,
	 <28, 42>,
	 <28, 64>,
	 <28, 50>,
	 <28, 58>,
	 <28, 57>,
	 <28, 65>,
	 <28, 66>,
	 <28, 70>,
	 <28, 60>,
	 <28, 43>,
	 <29, 57>,
	 <29, 65>,
	 <29, 66>,
	 <29, 70>,
	 <29, 60>,
	 <29, 43>,
	 <63, 29>,
	 <63, 61>,
	 <63, 34>,
	 <63, 57>,
	 <63, 65>,
	 <63, 66>,
	 <63, 70>,
	 <63, 60>,
	 <63, 43>,
	 <30, 29>,
	 <30, 61>,
	 <30, 34>,
	 <30, 57>,
	 <30, 65>,
	 <30, 66>,
	 <30, 70>,
	 <30, 60>,
	 <30, 43>,
	 <31, 29>,
	 <31, 34>,
	 <31, 57>,
	 <31, 65>,
	 <31, 66>,
	 <31, 70>,
	 <31, 60>,
	 <31, 43>,
	 <32, 29>,
	 <32, 57>,
	 <32, 65>,
	 <32, 66>,
	 <32, 70>,
	 <32, 60>,
	 <32, 43>,
	 <33, 66>,
	 <33, 70>,
	 <33, 60>,
	 <33, 43>,
	 <61, 57>,
	 <61, 65>,
	 <61, 66>,
	 <61, 70>,
	 <61, 60>,
	 <61, 43>,
	 <34, 57>,
	 <34, 65>,
	 <34, 66>,
	 <34, 70>,
	 <34, 60>,
	 <34, 43>,
	 <53, 48>,
	 <53, 17>,
	 <53, 49>,
	 <53, 62>,
	 <53, 44>,
	 <53, 67>,
	 <53, 37>,
	 <53, 35>,
	 <53, 42>,
	 <53, 64>,
	 <53, 50>,
	 <53, 58>,
	 <53, 57>,
	 <53, 65>,
	 <53, 66>,
	 <53, 70>,
	 <53, 60>,
	 <53, 43>,
	 <69, 17>,
	 <69, 49>,
	 <69, 62>,
	 <69, 44>,
	 <69, 67>,
	 <69, 37>,
	 <69, 35>,
	 <69, 42>,
	 <69, 64>,
	 <69, 50>,
	 <69, 58>,
	 <69, 57>,
	 <69, 65>,
	 <69, 66>,
	 <69, 70>,
	 <69, 60>,
	 <69, 43>,
	 <68, 37>,
	 <68, 35>,
	 <68, 42>,
	 <68, 64>,
	 <68, 50>,
	 <68, 58>,
	 <68, 57>,
	 <68, 65>,
	 <68, 66>,
	 <68, 70>,
	 <68, 60>,
	 <68, 43>,
	 <49, 48>,
	 <49, 17>,
	 <49, 44>,
	 <49, 67>,
	 <49, 37>,
	 <49, 35>,
	 <49, 42>,
	 <49, 64>,
	 <49, 50>,
	 <49, 58>,
	 <49, 57>,
	 <49, 65>,
	 <49, 66>,
	 <49, 70>,
	 <49, 60>,
	 <49, 43>,
	 <62, 17>,
	 <62, 44>,
	 <62, 67>,
	 <62, 37>,
	 <62, 35>,
	 <62, 42>,
	 <62, 64>,
	 <62, 50>,
	 <62, 58>,
	 <62, 57>,
	 <62, 65>,
	 <62, 66>,
	 <62, 70>,
	 <62, 60>,
	 <62, 43>,
	 <59, 45>,
	 <59, 55>,
	 <54, 45>,
	 <54, 55>,
	 <37, 35>,
	 <37, 50>,
	 <37, 58>,
	 <42, 35>,
	 <42, 50>,
	 <42, 58>,
	 <64, 35>,
	 <64, 58>,
	 <57, 65>,
	 <66, 43>,
	 }; 

SoftAtomicConstraints = {
	 <1, 2>,
	 <3, 4>,
	 <2, 5>,
	 <4, 6>,
	 <6, 7>,
	 <7, 8>,
	 <8, 9>,
	 <5, 10>,
	 <10, 11>,
	 <11, 12>,
	 <12, 13>,
	 <36, 14>,
	 <40, 16>,
	 <48, 17>,
	 <18, 19>,
	 <19, 20>,
	 <20, 21>,
	 <28, 23>,
	 <23, 24>,
	 <24, 25>,
	 <56, 26>,
	 <26, 27>,
	 <34, 29>,
	 <63, 30>,
	 <30, 31>,
	 <31, 32>,
	 <32, 33>,
	 <61, 34>,
	 <58, 35>,
	 <54, 37>,
	 <39, 38>,
	 <41, 39>,
	 <14, 40>,
	 <15, 41>,
	 <37, 42>,
	 <65, 43>,
	 <55, 44>,
	 <16, 46>,
	 <46, 47>,
	 <47, 48>,
	 <67, 50>,
	 <51, 52>,
	 <59, 54>,
	 <45, 55>,
	 <22, 56>,
	 <64, 57>,
	 <50, 58>,
	 <70, 60>,
	 <49, 62>,
	 <42, 64>,
	 <35, 65>,
	 <57, 66>,
	 <44, 67>,
	 <69, 68>,
	 <53, 69>,
	 <43, 70>,
	 }; 

DisjunctiveConstraints = {
	 <1, 21, 1, 56>,
	 <1, 22, 57, 1>,
	 <1, 28, 63, 1>,
	 <1, 59, 1, 24>,
	 <1, 45, 1, 10>,
	 <1, 50, 1, 15>,
	 <3, 21, 3, 56>,
	 <3, 22, 57, 3>,
	 <3, 28, 63, 3>,
	 <3, 59, 3, 24>,
	 <3, 45, 3, 10>,
	 <3, 50, 3, 15>,
	 <4, 3, 4, 6>,
	 <4, 41, 4, 6>,
	 <4, 56, 21, 4>,
	 <4, 49, 4, 14>,
	 <4, 59, 4, 24>,
	 <4, 45, 4, 10>,
	 <4, 58, 4, 23>,
	 <2, 1, 2, 5>,
	 <2, 41, 2, 6>,
	 <2, 56, 21, 2>,
	 <2, 49, 2, 14>,
	 <2, 59, 2, 24>,
	 <2, 45, 2, 10>,
	 <2, 58, 2, 23>,
	 <6, 4, 6, 7>,
	 <6, 15, 50, 6>,
	 <6, 39, 6, 4>,
	 <6, 19, 6, 54>,
	 <6, 23, 58, 6>,
	 <6, 55, 6, 20>,
	 <7, 6, 7, 8>,
	 <7, 36, 1, 7>,
	 <7, 15, 50, 7>,
	 <7, 41, 6, 7>,
	 <7, 38, 7, 3>,
	 <7, 51, 7, 16>,
	 <7, 59, 7, 24>,
	 <8, 7, 8, 9>,
	 <8, 41, 6, 8>,
	 <8, 14, 49, 8>,
	 <8, 39, 4, 8>,
	 <8, 40, 5, 8>,
	 <8, 61, 8, 26>,
	 <9, 39, 4, 9>,
	 <9, 38, 3, 9>,
	 <9, 40, 5, 9>,
	 <9, 16, 51, 9>,
	 <9, 24, 59, 9>,
	 <9, 26, 61, 9>,
	 <9, 62, 9, 27>,
	 <9, 59, 24, 9>,
	 <9, 54, 19, 9>,
	 <9, 45, 10, 9>,
	 <9, 60, 9, 25>,
	 <5, 2, 5, 10>,
	 <5, 36, 1, 5>,
	 <5, 15, 50, 5>,
	 <5, 39, 5, 4>,
	 <5, 19, 5, 54>,
	 <5, 23, 58, 5>,
	 <5, 55, 5, 20>,
	 <10, 5, 10, 11>,
	 <10, 36, 1, 10>,
	 <10, 15, 50, 10>,
	 <10, 41, 6, 10>,
	 <10, 14, 49, 10>,
	 <10, 38, 10, 3>,
	 <10, 51, 10, 16>,
	 <10, 59, 10, 24>,
	 <11, 10, 11, 12>,
	 <11, 41, 6, 11>,
	 <11, 14, 49, 11>,
	 <11, 39, 4, 11>,
	 <11, 40, 5, 11>,
	 <11, 45, 10, 11>,
	 <12, 11, 12, 13>,
	 <12, 39, 4, 12>,
	 <12, 38, 3, 12>,
	 <12, 40, 5, 12>,
	 <12, 16, 51, 12>,
	 <12, 24, 59, 12>,
	 <12, 26, 61, 12>,
	 <12, 59, 24, 12>,
	 <12, 54, 19, 12>,
	 <12, 45, 10, 12>,
	 <12, 55, 20, 12>,
	 <12, 60, 12, 25>,
	 <13, 38, 3, 13>,
	 <13, 16, 51, 13>,
	 <13, 46, 11, 13>,
	 <13, 25, 60, 13>,
	 <13, 27, 62, 13>,
	 <13, 54, 19, 13>,
	 <13, 55, 20, 13>,
	 <36, 59, 36, 24>,
	 <36, 45, 36, 10>,
	 <15, 59, 15, 24>,
	 <15, 45, 15, 10>,
	 <41, 15, 41, 39>,
	 <41, 19, 41, 54>,
	 <41, 59, 41, 24>,
	 <41, 45, 41, 10>,
	 <14, 36, 14, 40>,
	 <14, 19, 14, 54>,
	 <14, 59, 14, 24>,
	 <14, 45, 14, 10>,
	 <14, 55, 14, 20>,
	 <39, 41, 39, 38>,
	 <39, 19, 39, 54>,
	 <39, 59, 24, 39>,
	 <39, 45, 10, 39>,
	 <39, 55, 39, 20>,
	 <38, 54, 19, 38>,
	 <38, 55, 20, 38>,
	 <40, 14, 40, 16>,
	 <40, 19, 40, 54>,
	 <40, 59, 24, 40>,
	 <40, 45, 10, 40>,
	 <40, 55, 40, 20>,
	 <16, 40, 16, 46>,
	 <16, 54, 19, 16>,
	 <16, 55, 20, 16>,
	 <46, 16, 46, 47>,
	 <47, 46, 47, 48>,
	 <48, 47, 48, 17>,
	 <18, 29, 18, 64>,
	 <18, 35, 18, 70>,
	 <18, 37, 2, 18>,
	 <18, 50, 15, 18>,
	 <19, 18, 19, 20>,
	 <19, 37, 2, 19>,
	 <19, 42, 7, 19>,
	 <19, 50, 15, 19>,
	 <19, 58, 23, 19>,
	 <20, 19, 20, 21>,
	 <20, 35, 70, 20>,
	 <20, 42, 7, 20>,
	 <20, 64, 29, 20>,
	 <20, 58, 23, 20>,
	 <21, 35, 70, 21>,
	 <21, 64, 29, 21>,
	 <51, 29, 51, 64>,
	 <51, 35, 51, 70>,
	 <51, 37, 2, 51>,
	 <51, 50, 15, 51>,
	 <52, 37, 2, 52>,
	 <52, 42, 7, 52>,
	 <52, 50, 15, 52>,
	 <52, 58, 23, 52>,
	 <23, 41, 23, 6>,
	 <23, 49, 23, 14>,
	 <23, 59, 23, 24>,
	 <23, 45, 23, 10>,
	 <23, 50, 23, 15>,
	 <24, 39, 4, 24>,
	 <24, 40, 5, 24>,
	 <24, 46, 24, 11>,
	 <24, 51, 24, 16>,
	 <24, 54, 19, 24>,
	 <24, 45, 10, 24>,
	 <25, 38, 3, 25>,
	 <25, 16, 51, 25>,
	 <25, 47, 25, 12>,
	 <25, 54, 19, 25>,
	 <25, 55, 20, 25>,
	 <56, 36, 56, 1>,
	 <56, 50, 56, 15>,
	 <26, 39, 4, 26>,
	 <26, 40, 5, 26>,
	 <26, 46, 26, 11>,
	 <26, 51, 26, 16>,
	 <26, 45, 10, 26>,
	 <27, 38, 3, 27>,
	 <27, 16, 51, 27>,
	 <27, 47, 27, 12>,
	 <27, 54, 19, 27>,
	 <27, 55, 20, 27>,
	 <29, 57, 29, 22>,
	 <29, 65, 29, 30>,
	 <30, 63, 30, 31>,
	 <30, 57, 30, 22>,
	 <31, 30, 31, 32>,
	 <31, 57, 31, 22>,
	 <31, 65, 31, 30>,
	 <32, 31, 32, 33>,
	 <34, 61, 34, 29>,
	 <34, 57, 34, 22>,
	 <53, 48, 13, 53>,
	 <69, 17, 52, 69>,
	 <69, 44, 69, 9>,
	 <68, 67, 32, 68>,
	 <49, 48, 13, 49>,
	 <62, 17, 52, 62>,
	 <62, 44, 62, 9>,
	 <42, 37, 42, 64>,
	 <58, 50, 58, 35>,
	 }; 

DirectSuccessors = {
	 }; 

